1600 3200
1 2 1
1 41 5
2 3 4
2 42 1
3 4 5
3 43 1
4 5 2
4 44 1
5 6 5
5 45 4
6 7 5
6 46 2
7 8 5
7 47 1
8 9 2
8 48 4
9 10 4
9 49 2
10 11 1
10 50 3
11 12 2
11 51 5
12 13 2
12 52 1
13 14 4
13 53 3
14 15 2
14 54 4
15 16 4
15 55 2
16 17 3
16 56 3
17 18 3
17 57 3
18 19 3
18 58 5
19 20 4
19 59 4
20 21 1
20 60 3
21 22 1
21 61 4
22 23 5
22 62 5
23 24 4
23 63 4
24 25 4
24 64 3
25 26 1
25 65 2
26 27 5
26 66 2
27 28 1
27 67 1
28 29 4
28 68 5
29 30 3
29 69 1
30 31 2
30 70 4
31 32 2
31 71 2
32 33 5
32 72 1
33 34 1
33 73 2
34 35 1
34 74 2
35 36 3
35 75 3
36 37 5
36 76 3
37 38 5
37 77 5
38 39 4
38 78 5
39 40 5
39 79 2
40 80 1
41 42 1
41 81 4
42 43 3
42 82 3
43 44 2
43 83 3
44 45 3
44 84 3
45 46 3
45 85 2
46 47 5
46 86 3
47 48 5
47 87 4
48 49 3
48 88 4
49 50 4
49 89 5
50 51 2
50 90 4
51 52 1
51 91 1
52 53 4
52 92 4
53 54 5
53 93 2
54 55 3
54 94 1
55 56 1
55 95 2
56 57 4
56 96 5
57 58 1
57 97 5
58 59 1
58 98 4
59 60 5
59 99 5
60 61 5
60 100 5
61 62 4
61 101 3
62 63 3
62 102 1
63 64 1
63 103 5
64 65 5
64 104 4
65 66 2
65 105 1
66 67 5
66 106 2
67 68 2
67 107 5
68 69 5
68 108 5
69 70 4
69 109 4
70 71 2
70 110 5
71 72 4
71 111 1
72 73 5
72 112 5
73 74 4
73 113 3
74 75 3
74 114 5
75 76 4
75 115 2
76 77 3
76 116 2
77 78 4
77 117 4
78 79 4
78 118 3
79 80 2
79 119 2
80 120 2
81 82 1
81 121 4
82 83 5
82 122 2
83 84 4
83 123 5
84 85 5
84 124 2
85 86 2
85 125 2
86 87 5
86 126 3
87 88 3
87 127 4
88 89 2
88 128 3
89 90 5
89 129 3
90 91 3
90 130 5
91 92 1
91 131 4
92 93 5
92 132 2
93 94 4
93 133 2
94 95 1
94 134 4
95 96 4
95 135 4
96 97 3
96 136 4
97 98 3
97 137 2
98 99 5
98 138 5
99 100 5
99 139 4
100 101 5
100 140 1
101 102 4
101 141 1
102 103 2
102 142 5
103 104 3
103 143 4
104 105 1
104 144 2
105 106 3
105 145 2
106 107 2
106 146 4
107 108 1
107 147 1
108 109 1
108 148 2
109 110 3
109 149 1
110 111 3
110 150 1
111 112 5
111 151 4
112 113 2
112 152 1
113 114 1
113 153 1
114 115 2
114 154 4
115 116 1
115 155 3
116 117 1
116 156 1
117 118 2
117 157 5
118 119 3
118 158 2
119 120 5
119 159 5
120 160 1
121 122 4
121 161 3
122 123 4
122 162 4
123 124 1
123 163 3
124 125 1
124 164 3
125 126 4
125 165 2
126 127 4
126 166 3
127 128 2
127 167 1
128 129 3
128 168 5
129 130 1
129 169 1
130 131 2
130 170 3
131 132 1
131 171 1
132 133 3
132 172 3
133 134 4
133 173 2
134 135 5
134 174 1
135 136 4
135 175 1
136 137 2
136 176 1
137 138 2
137 177 2
138 139 3
138 178 2
139 140 5
139 179 1
140 141 3
140 180 5
141 142 5
141 181 1
142 143 2
142 182 3
143 144 2
143 183 2
144 145 2
144 184 5
145 146 4
145 185 5
146 147 1
146 186 2
147 148 3
147 187 1
148 149 3
148 188 2
149 150 1
149 189 3
150 151 2
150 190 4
151 152 3
151 191 4
152 153 2
152 192 1
153 154 1
153 193 2
154 155 2
154 194 4
155 156 1
155 195 4
156 157 5
156 196 2
157 158 1
157 197 1
158 159 4
158 198 4
159 160 1
159 199 2
160 200 2
161 162 5
161 201 4
162 163 1
162 202 2
163 164 4
163 203 4
164 165 2
164 204 4
165 166 1
165 205 1
166 167 2
166 206 4
167 168 2
167 207 5
168 169 1
168 208 4
169 170 1
169 209 3
170 171 1
170 210 4
171 172 5
171 211 2
172 173 3
172 212 3
173 174 5
173 213 2
174 175 2
174 214 5
175 176 2
175 215 4
176 177 1
176 216 5
177 178 1
177 217 5
178 179 1
178 218 2
179 180 5
179 219 4
180 181 5
180 220 2
181 182 3
181 221 2
182 183 2
182 222 2
183 184 2
183 223 1
184 185 5
184 224 2
185 186 3
185 225 2
186 187 4
186 226 5
187 188 4
187 227 3
188 189 5
188 228 1
189 190 3
189 229 4
190 191 2
190 230 1
191 192 4
191 231 4
192 193 3
192 232 4
193 194 1
193 233 2
194 195 5
194 234 4
195 196 1
195 235 4
196 197 5
196 236 5
197 198 5
197 237 2
198 199 4
198 238 4
199 200 1
199 239 1
200 240 3
201 202 4
201 241 2
202 203 1
202 242 2
203 204 2
203 243 4
204 205 3
204 244 4
205 206 4
205 245 3
206 207 4
206 246 4
207 208 4
207 247 5
208 209 3
208 248 2
209 210 4
209 249 1
210 211 1
210 250 3
211 212 4
211 251 3
212 213 1
212 252 3
213 214 3
213 253 1
214 215 5
214 254 3
215 216 4
215 255 2
216 217 5
216 256 5
217 218 3
217 257 1
218 219 4
218 258 5
219 220 2
219 259 2
220 221 2
220 260 4
221 222 1
221 261 5
222 223 2
222 262 2
223 224 3
223 263 2
224 225 3
224 264 1
225 226 4
225 265 1
226 227 2
226 266 5
227 228 5
227 267 1
228 229 4
228 268 1
229 230 2
229 269 3
230 231 4
230 270 3
231 232 5
231 271 1
232 233 4
232 272 3
233 234 5
233 273 3
234 235 4
234 274 1
235 236 1
235 275 4
236 237 5
236 276 5
237 238 3
237 277 5
238 239 2
238 278 1
239 240 5
239 279 3
240 280 1
241 242 1
241 281 5
242 243 2
242 282 4
243 244 5
243 283 1
244 245 2
244 284 2
245 246 2
245 285 4
246 247 5
246 286 1
247 248 2
247 287 3
248 249 1
248 288 3
249 250 5
249 289 4
250 251 5
250 290 3
251 252 2
251 291 4
252 253 1
252 292 4
253 254 4
253 293 3
254 255 2
254 294 3
255 256 5
255 295 4
256 257 2
256 296 2
257 258 1
257 297 1
258 259 2
258 298 4
259 260 1
259 299 5
260 261 1
260 300 2
261 262 3
261 301 3
262 263 1
262 302 4
263 264 1
263 303 4
264 265 2
264 304 1
265 266 1
265 305 2
266 267 1
266 306 2
267 268 3
267 307 5
268 269 1
268 308 2
269 270 1
269 309 2
270 271 4
270 310 5
271 272 4
271 311 4
272 273 2
272 312 4
273 274 2
273 313 5
274 275 4
274 314 5
275 276 3
275 315 4
276 277 2
276 316 4
277 278 4
277 317 4
278 279 3
278 318 1
279 280 3
279 319 3
280 320 5
281 282 2
281 321 2
282 283 4
282 322 2
283 284 1
283 323 1
284 285 3
284 324 2
285 286 4
285 325 2
286 287 2
286 326 1
287 288 4
287 327 3
288 289 2
288 328 3
289 290 4
289 329 4
290 291 3
290 330 2
291 292 2
291 331 1
292 293 1
292 332 5
293 294 3
293 333 5
294 295 4
294 334 5
295 296 1
295 335 2
296 297 5
296 336 4
297 298 4
297 337 4
298 299 3
298 338 5
299 300 1
299 339 2
300 301 4
300 340 1
301 302 2
301 341 1
302 303 3
302 342 4
303 304 4
303 343 3
304 305 1
304 344 1
305 306 3
305 345 5
306 307 3
306 346 1
307 308 2
307 347 2
308 309 3
308 348 1
309 310 3
309 349 1
310 311 4
310 350 1
311 312 1
311 351 2
312 313 2
312 352 3
313 314 2
313 353 4
314 315 4
314 354 5
315 316 3
315 355 1
316 317 4
316 356 4
317 318 1
317 357 3
318 319 3
318 358 5
319 320 1
319 359 3
320 360 3
321 322 1
321 361 4
322 323 5
322 362 3
323 324 1
323 363 2
324 325 5
324 364 4
325 326 1
325 365 2
326 327 3
326 366 2
327 328 4
327 367 3
328 329 2
328 368 4
329 330 2
329 369 3
330 331 5
330 370 3
331 332 1
331 371 1
332 333 4
332 372 2
333 334 1
333 373 5
334 335 1
334 374 3
335 336 1
335 375 3
336 337 2
336 376 2
337 338 2
337 377 2
338 339 3
338 378 2
339 340 5
339 379 5
340 341 2
340 380 3
341 342 3
341 381 5
342 343 1
342 382 4
343 344 3
343 383 1
344 345 1
344 384 4
345 346 5
345 385 1
346 347 5
346 386 1
347 348 4
347 387 2
348 349 4
348 388 3
349 350 1
349 389 4
350 351 1
350 390 1
351 352 5
351 391 3
352 353 5
352 392 1
353 354 4
353 393 2
354 355 5
354 394 1
355 356 2
355 395 3
356 357 5
356 396 5
357 358 3
357 397 2
358 359 1
358 398 4
359 360 4
359 399 1
360 400 3
361 362 5
361 401 4
362 363 1
362 402 1
363 364 1
363 403 1
364 365 5
364 404 3
365 366 5
365 405 4
366 367 4
366 406 5
367 368 1
367 407 3
368 369 2
368 408 4
369 370 4
369 409 3
370 371 2
370 410 3
371 372 5
371 411 1
372 373 2
372 412 2
373 374 1
373 413 5
374 375 5
374 414 5
375 376 2
375 415 1
376 377 2
376 416 1
377 378 4
377 417 3
378 379 2
378 418 5
379 380 1
379 419 1
380 381 3
380 420 2
381 382 4
381 421 4
382 383 2
382 422 3
383 384 5
383 423 3
384 385 5
384 424 4
385 386 4
385 425 4
386 387 3
386 426 2
387 388 2
387 427 1
388 389 3
388 428 3
389 390 1
389 429 5
390 391 4
390 430 5
391 392 3
391 431 1
392 393 2
392 432 3
393 394 4
393 433 1
394 395 5
394 434 3
395 396 5
395 435 3
396 397 4
396 436 4
397 398 1
397 437 4
398 399 5
398 438 1
399 400 2
399 439 5
400 440 2
401 402 3
401 441 2
402 403 4
402 442 4
403 404 3
403 443 3
404 405 3
404 444 4
405 406 5
405 445 3
406 407 2
406 446 2
407 408 5
407 447 4
408 409 5
408 448 4
409 410 2
409 449 4
410 411 2
410 450 5
411 412 3
411 451 1
412 413 3
412 452 5
413 414 4
413 453 5
414 415 3
414 454 5
415 416 4
415 455 3
416 417 1
416 456 4
417 418 5
417 457 1
418 419 2
418 458 4
419 420 2
419 459 4
420 421 1
420 460 2
421 422 3
421 461 2
422 423 3
422 462 5
423 424 5
423 463 1
424 425 4
424 464 3
425 426 4
425 465 1
426 427 2
426 466 1
427 428 3
427 467 3
428 429 2
428 468 4
429 430 5
429 469 3
430 431 2
430 470 1
431 432 4
431 471 1
432 433 4
432 472 3
433 434 2
433 473 4
434 435 3
434 474 1
435 436 4
435 475 2
436 437 1
436 476 2
437 438 4
437 477 1
438 439 3
438 478 1
439 440 3
439 479 3
440 480 5
441 442 5
441 481 5
442 443 4
442 482 3
443 444 3
443 483 4
444 445 2
444 484 2
445 446 1
445 485 4
446 447 5
446 486 4
447 448 1
447 487 1
448 449 3
448 488 5
449 450 1
449 489 3
450 451 4
450 490 4
451 452 3
451 491 3
452 453 3
452 492 3
453 454 1
453 493 2
454 455 1
454 494 3
455 456 5
455 495 2
456 457 3
456 496 4
457 458 3
457 497 2
458 459 2
458 498 4
459 460 2
459 499 5
460 461 2
460 500 2
461 462 3
461 501 1
462 463 5
462 502 1
463 464 5
463 503 1
464 465 5
464 504 2
465 466 5
465 505 3
466 467 4
466 506 1
467 468 3
467 507 1
468 469 1
468 508 3
469 470 2
469 509 3
470 471 2
470 510 4
471 472 5
471 511 5
472 473 4
472 512 1
473 474 3
473 513 3
474 475 5
474 514 4
475 476 4
475 515 3
476 477 5
476 516 3
477 478 5
477 517 1
478 479 4
478 518 3
479 480 3
479 519 4
480 520 5
481 482 3
481 521 3
482 483 3
482 522 4
483 484 3
483 523 1
484 485 4
484 524 4
485 486 5
485 525 1
486 487 5
486 526 3
487 488 5
487 527 2
488 489 1
488 528 2
489 490 5
489 529 3
490 491 5
490 530 5
491 492 3
491 531 5
492 493 2
492 532 5
493 494 4
493 533 1
494 495 5
494 534 4
495 496 3
495 535 3
496 497 3
496 536 3
497 498 1
497 537 2
498 499 4
498 538 5
499 500 2
499 539 5
500 501 2
500 540 2
501 502 1
501 541 5
502 503 5
502 542 3
503 504 4
503 543 2
504 505 3
504 544 5
505 506 4
505 545 4
506 507 3
506 546 4
507 508 1
507 547 2
508 509 1
508 548 5
509 510 3
509 549 5
510 511 1
510 550 5
511 512 3
511 551 2
512 513 1
512 552 2
513 514 1
513 553 2
514 515 1
514 554 1
515 516 5
515 555 1
516 517 1
516 556 4
517 518 2
517 557 2
518 519 1
518 558 3
519 520 1
519 559 4
520 560 4
521 522 4
521 561 5
522 523 1
522 562 2
523 524 1
523 563 2
524 525 5
524 564 1
525 526 5
525 565 3
526 527 4
526 566 5
527 528 3
527 567 3
528 529 2
528 568 2
529 530 3
529 569 4
530 531 1
530 570 1
531 532 3
531 571 5
532 533 1
532 572 1
533 534 5
533 573 4
534 535 5
534 574 4
535 536 2
535 575 5
536 537 4
536 576 5
537 538 5
537 577 1
538 539 3
538 578 4
539 540 1
539 579 1
540 541 3
540 580 4
541 542 2
541 581 5
542 543 2
542 582 1
543 544 1
543 583 1
544 545 2
544 584 1
545 546 2
545 585 5
546 547 5
546 586 4
547 548 3
547 587 2
548 549 3
548 588 4
549 550 4
549 589 5
550 551 3
550 590 5
551 552 2
551 591 5
552 553 1
552 592 4
553 554 1
553 593 2
554 555 5
554 594 4
555 556 3
555 595 1
556 557 1
556 596 5
557 558 5
557 597 1
558 559 4
558 598 5
559 560 1
559 599 1
560 600 3
561 562 3
561 601 2
562 563 4
562 602 2
563 564 3
563 603 2
564 565 4
564 604 2
565 566 5
565 605 1
566 567 5
566 606 2
567 568 2
567 607 3
568 569 2
568 608 1
569 570 3
569 609 4
570 571 5
570 610 1
571 572 3
571 611 5
572 573 4
572 612 3
573 574 5
573 613 2
574 575 2
574 614 2
575 576 4
575 615 4
576 577 4
576 616 4
577 578 4
577 617 3
578 579 5
578 618 1
579 580 4
579 619 3
580 581 2
580 620 2
581 582 5
581 621 2
582 583 2
582 622 4
583 584 1
583 623 4
584 585 5
584 624 3
585 586 2
585 625 5
586 587 4
586 626 2
587 588 1
587 627 5
588 589 4
588 628 4
589 590 2
589 629 4
590 591 4
590 630 2
591 592 3
591 631 3
592 593 1
592 632 3
593 594 5
593 633 5
594 595 3
594 634 1
595 596 3
595 635 2
596 597 2
596 636 5
597 598 4
597 637 4
598 599 5
598 638 2
599 600 3
599 639 5
600 640 1
601 602 1
601 641 3
602 603 2
602 642 5
603 604 4
603 643 3
604 605 3
604 644 4
605 606 2
605 645 1
606 607 5
606 646 3
607 608 1
607 647 1
608 609 1
608 648 5
609 610 1
609 649 2
610 611 4
610 650 4
611 612 4
611 651 5
612 613 3
612 652 5
613 614 3
613 653 3
614 615 2
614 654 1
615 616 1
615 655 1
616 617 4
616 656 2
617 618 5
617 657 3
618 619 4
618 658 2
619 620 1
619 659 1
620 621 1
620 660 1
621 622 3
621 661 4
622 623 1
622 662 2
623 624 5
623 663 2
624 625 1
624 664 5
625 626 4
625 665 4
626 627 4
626 666 3
627 628 4
627 667 2
628 629 3
628 668 3
629 630 4
629 669 2
630 631 5
630 670 3
631 632 1
631 671 4
632 633 5
632 672 5
633 634 2
633 673 3
634 635 2
634 674 4
635 636 5
635 675 5
636 637 2
636 676 3
637 638 4
637 677 1
638 639 1
638 678 3
639 640 3
639 679 4
640 680 5
641 642 3
641 681 4
642 643 2
642 682 5
643 644 1
643 683 3
644 645 4
644 684 2
645 646 3
645 685 3
646 647 1
646 686 2
647 648 3
647 687 5
648 649 4
648 688 1
649 650 3
649 689 5
650 651 4
650 690 4
651 652 2
651 691 5
652 653 5
652 692 1
653 654 1
653 693 5
654 655 2
654 694 2
655 656 3
655 695 4
656 657 1
656 696 3
657 658 5
657 697 1
658 659 1
658 698 2
659 660 4
659 699 2
660 661 3
660 700 3
661 662 1
661 701 3
662 663 5
662 702 4
663 664 2
663 703 5
664 665 1
664 704 3
665 666 5
665 705 5
666 667 3
666 706 3
667 668 4
667 707 1
668 669 5
668 708 4
669 670 2
669 709 5
670 671 4
670 710 5
671 672 3
671 711 1
672 673 2
672 712 4
673 674 5
673 713 4
674 675 2
674 714 1
675 676 1
675 715 1
676 677 1
676 716 1
677 678 3
677 717 5
678 679 5
678 718 4
679 680 4
679 719 4
680 720 1
681 682 3
681 721 3
682 683 4
682 722 4
683 684 3
683 723 1
684 685 3
684 724 3
685 686 5
685 725 1
686 687 2
686 726 5
687 688 1
687 727 5
688 689 4
688 728 1
689 690 3
689 729 3
690 691 5
690 730 1
691 692 1
691 731 2
692 693 4
692 732 3
693 694 5
693 733 2
694 695 5
694 734 3
695 696 2
695 735 2
696 697 3
696 736 4
697 698 4
697 737 1
698 699 1
698 738 2
699 700 3
699 739 1
700 701 2
700 740 1
701 702 3
701 741 2
702 703 2
702 742 4
703 704 1
703 743 4
704 705 2
704 744 3
705 706 5
705 745 4
706 707 5
706 746 1
707 708 1
707 747 5
708 709 3
708 748 1
709 710 5
709 749 1
710 711 2
710 750 4
711 712 2
711 751 3
712 713 2
712 752 5
713 714 2
713 753 2
714 715 4
714 754 5
715 716 3
715 755 2
716 717 5
716 756 5
717 718 5
717 757 2
718 719 1
718 758 4
719 720 3
719 759 5
720 760 3
721 722 5
721 761 5
722 723 5
722 762 3
723 724 4
723 763 2
724 725 5
724 764 3
725 726 4
725 765 1
726 727 2
726 766 1
727 728 2
727 767 5
728 729 3
728 768 5
729 730 1
729 769 4
730 731 2
730 770 5
731 732 2
731 771 1
732 733 5
732 772 2
733 734 2
733 773 3
734 735 5
734 774 1
735 736 1
735 775 5
736 737 3
736 776 5
737 738 1
737 777 4
738 739 5
738 778 3
739 740 3
739 779 3
740 741 4
740 780 1
741 742 3
741 781 1
742 743 3
742 782 5
743 744 5
743 783 4
744 745 2
744 784 3
745 746 3
745 785 2
746 747 2
746 786 2
747 748 1
747 787 2
748 749 1
748 788 5
749 750 4
749 789 4
750 751 1
750 790 4
751 752 1
751 791 3
752 753 1
752 792 3
753 754 4
753 793 4
754 755 1
754 794 2
755 756 4
755 795 3
756 757 1
756 796 5
757 758 1
757 797 1
758 759 5
758 798 1
759 760 1
759 799 1
760 800 4
761 762 5
761 801 2
762 763 1
762 802 2
763 764 1
763 803 1
764 765 5
764 804 1
765 766 1
765 805 3
766 767 1
766 806 3
767 768 2
767 807 1
768 769 4
768 808 3
769 770 4
769 809 1
770 771 2
770 810 2
771 772 5
771 811 3
772 773 3
772 812 2
773 774 3
773 813 3
774 775 5
774 814 4
775 776 5
775 815 4
776 777 4
776 816 3
777 778 4
777 817 2
778 779 4
778 818 2
779 780 3
779 819 5
780 781 2
780 820 4
781 782 2
781 821 2
782 783 3
782 822 1
783 784 4
783 823 1
784 785 5
784 824 3
785 786 2
785 825 1
786 787 4
786 826 3
787 788 1
787 827 1
788 789 1
788 828 2
789 790 1
789 829 1
790 791 5
790 830 2
791 792 3
791 831 5
792 793 5
792 832 5
793 794 3
793 833 3
794 795 5
794 834 1
795 796 4
795 835 2
796 797 1
796 836 1
797 798 3
797 837 5
798 799 2
798 838 3
799 800 3
799 839 3
800 840 1
801 802 5
801 841 4
802 803 1
802 842 4
803 804 2
803 843 4
804 805 5
804 844 4
805 806 3
805 845 3
806 807 4
806 846 2
807 808 1
807 847 3
808 809 2
808 848 1
809 810 2
809 849 5
810 811 4
810 850 4
811 812 4
811 851 2
812 813 2
812 852 4
813 814 1
813 853 2
814 815 4
814 854 3
815 816 4
815 855 4
816 817 5
816 856 4
817 818 2
817 857 1
818 819 2
818 858 3
819 820 3
819 859 3
820 821 3
820 860 1
821 822 1
821 861 3
822 823 3
822 862 2
823 824 3
823 863 1
824 825 5
824 864 2
825 826 1
825 865 5
826 827 3
826 866 4
827 828 5
827 867 5
828 829 1
828 868 5
829 830 3
829 869 4
830 831 5
830 870 4
831 832 2
831 871 3
832 833 3
832 872 4
833 834 1
833 873 5
834 835 5
834 874 3
835 836 3
835 875 5
836 837 3
836 876 5
837 838 2
837 877 2
838 839 3
838 878 2
839 840 4
839 879 1
840 880 4
841 842 2
841 881 5
842 843 3
842 882 2
843 844 3
843 883 4
844 845 1
844 884 3
845 846 5
845 885 1
846 847 1
846 886 1
847 848 3
847 887 5
848 849 5
848 888 1
849 850 5
849 889 2
850 851 1
850 890 2
851 852 1
851 891 1
852 853 5
852 892 5
853 854 5
853 893 5
854 855 3
854 894 5
855 856 5
855 895 1
856 857 2
856 896 4
857 858 2
857 897 5
858 859 3
858 898 2
859 860 3
859 899 5
860 861 4
860 900 3
861 862 3
861 901 3
862 863 4
862 902 5
863 864 1
863 903 5
864 865 5
864 904 3
865 866 1
865 905 2
866 867 2
866 906 5
867 868 4
867 907 4
868 869 4
868 908 3
869 870 3
869 909 5
870 871 1
870 910 3
871 872 1
871 911 2
872 873 1
872 912 1
873 874 2
873 913 1
874 875 2
874 914 1
875 876 4
875 915 1
876 877 3
876 916 2
877 878 3
877 917 2
878 879 3
878 918 1
879 880 1
879 919 3
880 920 2
881 882 3
881 921 2
882 883 5
882 922 1
883 884 4
883 923 3
884 885 1
884 924 5
885 886 1
885 925 5
886 887 4
886 926 4
887 888 3
887 927 3
888 889 2
888 928 1
889 890 1
889 929 1
890 891 5
890 930 1
891 892 2
891 931 3
892 893 4
892 932 4
893 894 4
893 933 5
894 895 5
894 934 2
895 896 2
895 935 4
896 897 5
896 936 1
897 898 2
897 937 1
898 899 2
898 938 4
899 900 4
899 939 1
900 901 4
900 940 2
901 902 2
901 941 2
902 903 2
902 942 1
903 904 4
903 943 5
904 905 5
904 944 1
905 906 5
905 945 3
906 907 5
906 946 2
907 908 5
907 947 1
908 909 1
908 948 3
909 910 4
909 949 5
910 911 3
910 950 4
911 912 5
911 951 3
912 913 3
912 952 2
913 914 1
913 953 3
914 915 5
914 954 3
915 916 1
915 955 5
916 917 2
916 956 1
917 918 4
917 957 3
918 919 2
918 958 5
919 920 1
919 959 1
920 960 5
921 922 5
921 961 1
922 923 4
922 962 5
923 924 2
923 963 2
924 925 1
924 964 2
925 926 1
925 965 5
926 927 1
926 966 1
927 928 5
927 967 2
928 929 3
928 968 2
929 930 1
929 969 3
930 931 3
930 970 3
931 932 3
931 971 2
932 933 2
932 972 1
933 934 4
933 973 4
934 935 4
934 974 1
935 936 5
935 975 5
936 937 3
936 976 5
937 938 4
937 977 4
938 939 1
938 978 4
939 940 1
939 979 5
940 941 5
940 980 1
941 942 3
941 981 5
942 943 4
942 982 3
943 944 3
943 983 2
944 945 2
944 984 4
945 946 4
945 985 4
946 947 4
946 986 2
947 948 4
947 987 2
948 949 3
948 988 4
949 950 4
949 989 1
950 951 3
950 990 4
951 952 5
951 991 2
952 953 4
952 992 5
953 954 4
953 993 1
954 955 2
954 994 1
955 956 2
955 995 2
956 957 2
956 996 5
957 958 3
957 997 2
958 959 3
958 998 5
959 960 4
959 999 1
960 1000 4
961 962 3
961 1001 2
962 963 4
962 1002 3
963 964 2
963 1003 5
964 965 1
964 1004 2
965 966 5
965 1005 2
966 967 3
966 1006 1
967 968 1
967 1007 4
968 969 1
968 1008 1
969 970 3
969 1009 2
970 971 2
970 1010 3
971 972 2
971 1011 2
972 973 1
972 1012 4
973 974 4
973 1013 5
974 975 4
974 1014 2
975 976 5
975 1015 2
976 977 2
976 1016 3
977 978 1
977 1017 5
978 979 3
978 1018 4
979 980 5
979 1019 5
980 981 2
980 1020 2
981 982 2
981 1021 3
982 983 4
982 1022 5
983 984 4
983 1023 1
984 985 3
984 1024 1
985 986 2
985 1025 3
986 987 2
986 1026 4
987 988 3
987 1027 4
988 989 1
988 1028 4
989 990 4
989 1029 4
990 991 5
990 1030 5
991 992 2
991 1031 5
992 993 3
992 1032 5
993 994 1
993 1033 1
994 995 1
994 1034 5
995 996 2
995 1035 3
996 997 2
996 1036 3
997 998 5
997 1037 4
998 999 3
998 1038 1
999 1000 5
999 1039 1
1000 1040 1
1001 1002 5
1001 1041 4
1002 1003 2
1002 1042 2
1003 1004 2
1003 1043 5
1004 1005 4
1004 1044 5
1005 1006 5
1005 1045 1
1006 1007 2
1006 1046 5
1007 1008 4
1007 1047 5
1008 1009 1
1008 1048 3
1009 1010 3
1009 1049 3
1010 1011 5
1010 1050 2
1011 1012 4
1011 1051 1
1012 1013 4
1012 1052 3
1013 1014 1
1013 1053 3
1014 1015 2
1014 1054 3
1015 1016 4
1015 1055 1
1016 1017 2
1016 1056 2
1017 1018 4
1017 1057 5
1018 1019 1
1018 1058 5
1019 1020 2
1019 1059 2
1020 1021 2
1020 1060 2
1021 1022 4
1021 1061 3
1022 1023 3
1022 1062 5
1023 1024 3
1023 1063 3
1024 1025 5
1024 1064 2
1025 1026 1
1025 1065 1
1026 1027 4
1026 1066 5
1027 1028 5
1027 1067 3
1028 1029 2
1028 1068 3
1029 1030 4
1029 1069 5
1030 1031 5
1030 1070 2
1031 1032 1
1031 1071 4
1032 1033 5
1032 1072 4
1033 1034 3
1033 1073 2
1034 1035 1
1034 1074 2
1035 1036 2
1035 1075 5
1036 1037 5
1036 1076 3
1037 1038 4
1037 1077 2
1038 1039 1
1038 1078 2
1039 1040 3
1039 1079 5
1040 1080 3
1041 1042 3
1041 1081 3
1042 1043 2
1042 1082 5
1043 1044 1
1043 1083 5
1044 1045 4
1044 1084 1
1045 1046 3
1045 1085 5
1046 1047 3
1046 1086 3
1047 1048 2
1047 1087 2
1048 1049 5
1048 1088 3
1049 1050 4
1049 1089 2
1050 1051 3
1050 1090 4
1051 1052 4
1051 1091 1
1052 1053 3
1052 1092 5
1053 1054 1
1053 1093 5
1054 1055 2
1054 1094 5
1055 1056 4
1055 1095 5
1056 1057 2
1056 1096 4
1057 1058 3
1057 1097 2
1058 1059 1
1058 1098 4
1059 1060 5
1059 1099 4
1060 1061 5
1060 1100 2
1061 1062 5
1061 1101 4
1062 1063 2
1062 1102 3
1063 1064 1
1063 1103 1
1064 1065 5
1064 1104 4
1065 1066 3
1065 1105 3
1066 1067 3
1066 1106 3
1067 1068 1
1067 1107 4
1068 1069 5
1068 1108 5
1069 1070 1
1069 1109 3
1070 1071 2
1070 1110 2
1071 1072 1
1071 1111 1
1072 1073 3
1072 1112 5
1073 1074 3
1073 1113 5
1074 1075 4
1074 1114 4
1075 1076 2
1075 1115 3
1076 1077 2
1076 1116 5
1077 1078 3
1077 1117 2
1078 1079 4
1078 1118 2
1079 1080 5
1079 1119 5
1080 1120 5
1081 1082 2
1081 1121 1
1082 1083 5
1082 1122 5
1083 1084 5
1083 1123 5
1084 1085 2
1084 1124 5
1085 1086 5
1085 1125 4
1086 1087 3
1086 1126 4
1087 1088 4
1087 1127 5
1088 1089 2
1088 1128 1
1089 1090 2
1089 1129 5
1090 1091 5
1090 1130 1
1091 1092 1
1091 1131 1
1092 1093 5
1092 1132 5
1093 1094 4
1093 1133 2
1094 1095 5
1094 1134 2
1095 1096 5
1095 1135 4
1096 1097 5
1096 1136 4
1097 1098 4
1097 1137 3
1098 1099 2
1098 1138 2
1099 1100 2
1099 1139 2
1100 1101 4
1100 1140 5
1101 1102 1
1101 1141 2
1102 1103 3
1102 1142 1
1103 1104 2
1103 1143 2
1104 1105 3
1104 1144 2
1105 1106 1
1105 1145 5
1106 1107 4
1106 1146 3
1107 1108 4
1107 1147 1
1108 1109 5
1108 1148 1
1109 1110 5
1109 1149 3
1110 1111 5
1110 1150 2
1111 1112 2
1111 1151 4
1112 1113 2
1112 1152 3
1113 1114 3
1113 1153 2
1114 1115 4
1114 1154 3
1115 1116 1
1115 1155 5
1116 1117 5
1116 1156 5
1117 1118 5
1117 1157 1
1118 1119 4
1118 1158 2
1119 1120 5
1119 1159 3
1120 1160 3
1121 1122 1
1121 1161 2
1122 1123 4
1122 1162 5
1123 1124 4
1123 1163 1
1124 1125 2
1124 1164 4
1125 1126 2
1125 1165 4
1126 1127 4
1126 1166 1
1127 1128 2
1127 1167 2
1128 1129 2
1128 1168 2
1129 1130 5
1129 1169 4
1130 1131 3
1130 1170 2
1131 1132 1
1131 1171 1
1132 1133 4
1132 1172 3
1133 1134 4
1133 1173 2
1134 1135 1
1134 1174 1
1135 1136 2
1135 1175 2
1136 1137 3
1136 1176 4
1137 1138 1
1137 1177 4
1138 1139 2
1138 1178 2
1139 1140 1
1139 1179 2
1140 1141 1
1140 1180 3
1141 1142 3
1141 1181 3
1142 1143 4
1142 1182 4
1143 1144 5
1143 1183 1
1144 1145 3
1144 1184 4
1145 1146 5
1145 1185 2
1146 1147 4
1146 1186 4
1147 1148 4
1147 1187 3
1148 1149 5
1148 1188 2
1149 1150 5
1149 1189 4
1150 1151 2
1150 1190 2
1151 1152 3
1151 1191 3
1152 1153 5
1152 1192 3
1153 1154 5
1153 1193 4
1154 1155 1
1154 1194 2
1155 1156 1
1155 1195 4
1156 1157 4
1156 1196 2
1157 1158 4
1157 1197 3
1158 1159 5
1158 1198 3
1159 1160 2
1159 1199 2
1160 1200 5
1161 1162 1
1161 1201 3
1162 1163 4
1162 1202 4
1163 1164 1
1163 1203 1
1164 1165 2
1164 1204 4
1165 1166 3
1165 1205 5
1166 1167 1
1166 1206 4
1167 1168 4
1167 1207 4
1168 1169 1
1168 1208 4
1169 1170 2
1169 1209 2
1170 1171 5
1170 1210 1
1171 1172 2
1171 1211 1
1172 1173 5
1172 1212 5
1173 1174 4
1173 1213 5
1174 1175 5
1174 1214 4
1175 1176 5
1175 1215 3
1176 1177 5
1176 1216 5
1177 1178 5
1177 1217 3
1178 1179 1
1178 1218 1
1179 1180 2
1179 1219 1
1180 1181 3
1180 1220 5
1181 1182 5
1181 1221 5
1182 1183 1
1182 1222 3
1183 1184 1
1183 1223 3
1184 1185 5
1184 1224 1
1185 1186 5
1185 1225 2
1186 1187 1
1186 1226 2
1187 1188 5
1187 1227 2
1188 1189 2
1188 1228 5
1189 1190 2
1189 1229 2
1190 1191 4
1190 1230 5
1191 1192 1
1191 1231 4
1192 1193 4
1192 1232 5
1193 1194 3
1193 1233 1
1194 1195 1
1194 1234 1
1195 1196 4
1195 1235 1
1196 1197 3
1196 1236 1
1197 1198 4
1197 1237 2
1198 1199 2
1198 1238 3
1199 1200 2
1199 1239 2
1200 1240 3
1201 1202 2
1201 1241 2
1202 1203 3
1202 1242 5
1203 1204 4
1203 1243 5
1204 1205 5
1204 1244 2
1205 1206 5
1205 1245 3
1206 1207 5
1206 1246 3
1207 1208 3
1207 1247 2
1208 1209 3
1208 1248 3
1209 1210 1
1209 1249 4
1210 1211 2
1210 1250 2
1211 1212 5
1211 1251 4
1212 1213 1
1212 1252 4
1213 1214 5
1213 1253 3
1214 1215 2
1214 1254 4
1215 1216 3
1215 1255 2
1216 1217 5
1216 1256 2
1217 1218 3
1217 1257 3
1218 1219 2
1218 1258 2
1219 1220 5
1219 1259 3
1220 1221 3
1220 1260 1
1221 1222 5
1221 1261 5
1222 1223 2
1222 1262 2
1223 1224 3
1223 1263 2
1224 1225 4
1224 1264 1
1225 1226 3
1225 1265 4
1226 1227 5
1226 1266 5
1227 1228 2
1227 1267 5
1228 1229 5
1228 1268 4
1229 1230 5
1229 1269 3
1230 1231 1
1230 1270 3
1231 1232 5
1231 1271 3
1232 1233 5
1232 1272 3
1233 1234 2
1233 1273 2
1234 1235 3
1234 1274 1
1235 1236 3
1235 1275 1
1236 1237 4
1236 1276 1
1237 1238 3
1237 1277 4
1238 1239 5
1238 1278 2
1239 1240 4
1239 1279 2
1240 1280 5
1241 1242 4
1241 1281 5
1242 1243 3
1242 1282 5
1243 1244 4
1243 1283 4
1244 1245 4
1244 1284 5
1245 1246 3
1245 1285 3
1246 1247 4
1246 1286 1
1247 1248 2
1247 1287 5
1248 1249 1
1248 1288 2
1249 1250 1
1249 1289 1
1250 1251 5
1250 1290 1
1251 1252 5
1251 1291 2
1252 1253 3
1252 1292 3
1253 1254 4
1253 1293 1
1254 1255 2
1254 1294 3
1255 1256 2
1255 1295 2
1256 1257 3
1256 1296 2
1257 1258 3
1257 1297 1
1258 1259 1
1258 1298 2
1259 1260 5
1259 1299 3
1260 1261 4
1260 1300 2
1261 1262 2
1261 1301 4
1262 1263 1
1262 1302 3
1263 1264 2
1263 1303 1
1264 1265 4
1264 1304 1
1265 1266 1
1265 1305 5
1266 1267 3
1266 1306 1
1267 1268 4
1267 1307 1
1268 1269 4
1268 1308 5
1269 1270 1
1269 1309 2
1270 1271 5
1270 1310 1
1271 1272 4
1271 1311 3
1272 1273 4
1272 1312 4
1273 1274 3
1273 1313 1
1274 1275 2
1274 1314 1
1275 1276 1
1275 1315 5
1276 1277 2
1276 1316 2
1277 1278 5
1277 1317 4
1278 1279 3
1278 1318 2
1279 1280 2
1279 1319 4
1280 1320 5
1281 1282 2
1281 1321 3
1282 1283 4
1282 1322 5
1283 1284 3
1283 1323 4
1284 1285 5
1284 1324 2
1285 1286 4
1285 1325 2
1286 1287 3
1286 1326 2
1287 1288 3
1287 1327 1
1288 1289 3
1288 1328 3
1289 1290 3
1289 1329 5
1290 1291 5
1290 1330 1
1291 1292 1
1291 1331 5
1292 1293 1
1292 1332 3
1293 1294 4
1293 1333 2
1294 1295 4
1294 1334 3
1295 1296 4
1295 1335 5
1296 1297 3
1296 1336 5
1297 1298 2
1297 1337 4
1298 1299 5
1298 1338 1
1299 1300 2
1299 1339 5
1300 1301 2
1300 1340 3
1301 1302 1
1301 1341 5
1302 1303 1
1302 1342 5
1303 1304 4
1303 1343 2
1304 1305 1
1304 1344 5
1305 1306 1
1305 1345 5
1306 1307 1
1306 1346 4
1307 1308 4
1307 1347 3
1308 1309 5
1308 1348 2
1309 1310 2
1309 1349 4
1310 1311 2
1310 1350 3
1311 1312 2
1311 1351 2
1312 1313 3
1312 1352 5
1313 1314 2
1313 1353 5
1314 1315 3
1314 1354 3
1315 1316 5
1315 1355 3
1316 1317 4
1316 1356 1
1317 1318 3
1317 1357 1
1318 1319 1
1318 1358 4
1319 1320 3
1319 1359 3
1320 1360 2
1321 1322 5
1321 1361 5
1322 1323 3
1322 1362 3
1323 1324 1
1323 1363 2
1324 1325 2
1324 1364 1
1325 1326 4
1325 1365 3
1326 1327 5
1326 1366 2
1327 1328 4
1327 1367 3
1328 1329 3
1328 1368 4
1329 1330 4
1329 1369 2
1330 1331 1
1330 1370 1
1331 1332 3
1331 1371 3
1332 1333 2
1332 1372 1
1333 1334 2
1333 1373 3
1334 1335 3
1334 1374 1
1335 1336 2
1335 1375 4
1336 1337 2
1336 1376 1
1337 1338 4
1337 1377 2
1338 1339 1
1338 1378 1
1339 1340 3
1339 1379 5
1340 1341 4
1340 1380 3
1341 1342 2
1341 1381 1
1342 1343 3
1342 1382 5
1343 1344 2
1343 1383 2
1344 1345 5
1344 1384 2
1345 1346 2
1345 1385 1
1346 1347 5
1346 1386 2
1347 1348 1
1347 1387 3
1348 1349 5
1348 1388 1
1349 1350 4
1349 1389 2
1350 1351 1
1350 1390 1
1351 1352 3
1351 1391 1
1352 1353 1
1352 1392 4
1353 1354 2
1353 1393 5
1354 1355 1
1354 1394 4
1355 1356 2
1355 1395 4
1356 1357 3
1356 1396 2
1357 1358 3
1357 1397 1
1358 1359 1
1358 1398 3
1359 1360 2
1359 1399 4
1360 1400 2
1361 1362 1
1361 1401 5
1362 1363 2
1362 1402 2
1363 1364 1
1363 1403 2
1364 1365 4
1364 1404 2
1365 1366 2
1365 1405 3
1366 1367 1
1366 1406 4
1367 1368 5
1367 1407 2
1368 1369 1
1368 1408 1
1369 1370 5
1369 1409 3
1370 1371 5
1370 1410 2
1371 1372 5
1371 1411 4
1372 1373 4
1372 1412 1
1373 1374 2
1373 1413 5
1374 1375 2
1374 1414 1
1375 1376 4
1375 1415 5
1376 1377 5
1376 1416 2
1377 1378 2
1377 1417 3
1378 1379 2
1378 1418 5
1379 1380 5
1379 1419 2
1380 1381 1
1380 1420 2
1381 1382 4
1381 1421 1
1382 1383 3
1382 1422 1
1383 1384 2
1383 1423 3
1384 1385 2
1384 1424 3
1385 1386 1
1385 1425 4
1386 1387 5
1386 1426 2
1387 1388 5
1387 1427 1
1388 1389 3
1388 1428 1
1389 1390 5
1389 1429 3
1390 1391 3
1390 1430 4
1391 1392 4
1391 1431 5
1392 1393 2
1392 1432 3
1393 1394 1
1393 1433 4
1394 1395 3
1394 1434 3
1395 1396 1
1395 1435 4
1396 1397 1
1396 1436 1
1397 1398 1
1397 1437 1
1398 1399 2
1398 1438 5
1399 1400 5
1399 1439 2
1400 1440 4
1401 1402 3
1401 1441 4
1402 1403 4
1402 1442 2
1403 1404 5
1403 1443 3
1404 1405 4
1404 1444 5
1405 1406 4
1405 1445 5
1406 1407 2
1406 1446 4
1407 1408 5
1407 1447 3
1408 1409 5
1408 1448 2
1409 1410 2
1409 1449 5
1410 1411 3
1410 1450 1
1411 1412 2
1411 1451 1
1412 1413 4
1412 1452 5
1413 1414 1
1413 1453 3
1414 1415 3
1414 1454 1
1415 1416 5
1415 1455 1
1416 1417 5
1416 1456 4
1417 1418 1
1417 1457 2
1418 1419 2
1418 1458 3
1419 1420 2
1419 1459 5
1420 1421 4
1420 1460 5
1421 1422 4
1421 1461 2
1422 1423 2
1422 1462 3
1423 1424 4
1423 1463 4
1424 1425 3
1424 1464 1
1425 1426 2
1425 1465 5
1426 1427 3
1426 1466 5
1427 1428 1
1427 1467 5
1428 1429 2
1428 1468 3
1429 1430 5
1429 1469 1
1430 1431 2
1430 1470 1
1431 1432 5
1431 1471 2
1432 1433 3
1432 1472 1
1433 1434 2
1433 1473 1
1434 1435 4
1434 1474 4
1435 1436 4
1435 1475 4
1436 1437 1
1436 1476 3
1437 1438 1
1437 1477 5
1438 1439 2
1438 1478 5
1439 1440 3
1439 1479 3
1440 1480 2
1441 1442 3
1441 1481 2
1442 1443 2
1442 1482 4
1443 1444 5
1443 1483 1
1444 1445 1
1444 1484 2
1445 1446 4
1445 1485 1
1446 1447 5
1446 1486 1
1447 1448 3
1447 1487 3
1448 1449 4
1448 1488 4
1449 1450 2
1449 1489 3
1450 1451 5
1450 1490 4
1451 1452 4
1451 1491 5
1452 1453 5
1452 1492 1
1453 1454 5
1453 1493 2
1454 1455 4
1454 1494 1
1455 1456 4
1455 1495 2
1456 1457 4
1456 1496 1
1457 1458 1
1457 1497 2
1458 1459 2
1458 1498 5
1459 1460 5
1459 1499 1
1460 1461 4
1460 1500 2
1461 1462 2
1461 1501 2
1462 1463 5
1462 1502 5
1463 1464 2
1463 1503 1
1464 1465 5
1464 1504 1
1465 1466 3
1465 1505 3
1466 1467 5
1466 1506 1
1467 1468 5
1467 1507 3
1468 1469 5
1468 1508 3
1469 1470 1
1469 1509 5
1470 1471 4
1470 1510 3
1471 1472 4
1471 1511 3
1472 1473 5
1472 1512 2
1473 1474 5
1473 1513 2
1474 1475 4
1474 1514 4
1475 1476 3
1475 1515 3
1476 1477 2
1476 1516 3
1477 1478 3
1477 1517 4
1478 1479 2
1478 1518 5
1479 1480 5
1479 1519 1
1480 1520 1
1481 1482 4
1481 1521 5
1482 1483 5
1482 1522 5
1483 1484 2
1483 1523 4
1484 1485 2
1484 1524 1
1485 1486 1
1485 1525 1
1486 1487 3
1486 1526 4
1487 1488 4
1487 1527 3
1488 1489 5
1488 1528 1
1489 1490 3
1489 1529 3
1490 1491 4
1490 1530 1
1491 1492 5
1491 1531 3
1492 1493 2
1492 1532 4
1493 1494 2
1493 1533 1
1494 1495 2
1494 1534 2
1495 1496 5
1495 1535 4
1496 1497 2
1496 1536 4
1497 1498 4
1497 1537 1
1498 1499 5
1498 1538 3
1499 1500 4
1499 1539 2
1500 1501 2
1500 1540 1
1501 1502 2
1501 1541 5
1502 1503 4
1502 1542 4
1503 1504 5
1503 1543 5
1504 1505 4
1504 1544 5
1505 1506 4
1505 1545 4
1506 1507 2
1506 1546 2
1507 1508 3
1507 1547 4
1508 1509 1
1508 1548 1
1509 1510 1
1509 1549 1
1510 1511 3
1510 1550 1
1511 1512 5
1511 1551 2
1512 1513 5
1512 1552 5
1513 1514 2
1513 1553 4
1514 1515 5
1514 1554 1
1515 1516 1
1515 1555 5
1516 1517 3
1516 1556 3
1517 1518 1
1517 1557 4
1518 1519 5
1518 1558 4
1519 1520 1
1519 1559 1
1520 1560 2
1521 1522 1
1521 1561 3
1522 1523 5
1522 1562 4
1523 1524 1
1523 1563 2
1524 1525 5
1524 1564 1
1525 1526 1
1525 1565 1
1526 1527 5
1526 1566 1
1527 1528 4
1527 1567 3
1528 1529 3
1528 1568 5
1529 1530 4
1529 1569 1
1530 1531 3
1530 1570 3
1531 1532 5
1531 1571 2
1532 1533 4
1532 1572 1
1533 1534 1
1533 1573 2
1534 1535 2
1534 1574 5
1535 1536 2
1535 1575 1
1536 1537 4
1536 1576 2
1537 1538 3
1537 1577 1
1538 1539 1
1538 1578 2
1539 1540 2
1539 1579 3
1540 1541 2
1540 1580 4
1541 1542 4
1541 1581 2
1542 1543 3
1542 1582 3
1543 1544 4
1543 1583 2
1544 1545 4
1544 1584 2
1545 1546 5
1545 1585 5
1546 1547 4
1546 1586 5
1547 1548 2
1547 1587 2
1548 1549 3
1548 1588 4
1549 1550 2
1549 1589 5
1550 1551 5
1550 1590 2
1551 1552 1
1551 1591 4
1552 1553 5
1552 1592 1
1553 1554 1
1553 1593 2
1554 1555 4
1554 1594 1
1555 1556 4
1555 1595 1
1556 1557 3
1556 1596 4
1557 1558 5
1557 1597 2
1558 1559 5
1558 1598 1
1559 1560 5
1559 1599 1
1560 1600 3
1561 1562 4
1562 1563 1
1563 1564 4
1564 1565 4
1565 1566 4
1566 1567 1
1567 1568 5
1568 1569 5
1569 1570 1
1570 1571 2
1571 1572 2
1572 1573 1
1573 1574 4
1574 1575 5
1575 1576 3
1576 1577 2
1577 1578 3
1578 1579 2
1579 1580 3
1580 1581 2
1581 1582 5
1582 1583 1
1583 1584 5
1584 1585 4
1585 1586 5
1586 1587 1
1587 1588 1
1588 1589 2
1589 1590 3
1590 1591 1
1591 1592 2
1592 1593 3
1593 1594 1
1594 1595 1
1595 1596 4
1596 1597 1
1597 1598 4
1598 1599 5
1599 1600 4
1 1561 5
2 1562 2
3 1563 2
4 1564 4
5 1565 5
6 1566 5
7 1567 4
8 1568 2
9 1569 3
10 1570 3
11 1571 2
12 1572 4
13 1573 1
14 1574 4
15 1575 3
16 1576 3
17 1577 1
18 1578 3
19 1579 2
20 1580 2
21 1581 4
22 1582 5
23 1583 5
24 1584 4
25 1585 5
26 1586 1
27 1587 1
28 1588 2
29 1589 2
30 1590 1
31 1591 4
32 1592 4
33 1593 2
34 1594 4
35 1595 5
36 1596 4
37 1597 3
38 1598 3
39 1599 2
40 1600 2
1 40 3
41 80 2
81 120 2
121 160 5
161 200 2
201 240 4
241 280 2
281 320 2
321 360 3
361 400 4
401 440 2
441 480 1
481 520 5
521 560 1
561 600 5
601 640 1
641 680 4
681 720 2
721 760 2
761 800 3
801 840 5
841 880 5
881 920 2
921 960 4
961 1000 4
1001 1040 3
1041 1080 3
1081 1120 1
1121 1160 5
1161 1200 4
1201 1240 3
1241 1280 2
1281 1320 1
1321 1360 1
1361 1400 2
1401 1440 5
1441 1480 5
1481 1520 5
1521 1560 4
1561 1600 5
